WARNING: for repeatability, setting FPU to use double precision
============================[ Problem Statistics ]=============================
|                                                                             |
|  Number of symmetries:          79                                          |
|  Number of invertingSyms:        0                                          |
|  Number of variables:          1640                                         |
|  Number of clauses:           32841                                         |
|  Parse time:                   0.00 s                                       |
|                                                                             |
============================[ Search Statistics ]==============================
| Conflicts |          ORIGINAL         |          LEARNT          | Progress |
|           |    Vars  Clauses Literals |    Limit  Clauses Lit/Cl |          |
===============================================================================
|       100 |    1640    32841    67240 |    12041      103    480 |  0.000 % |
|       250 |    1640    32841    67240 |    13245      255    351 |  0.000 % |
|       475 |    1640    32841    67240 |    14570      491    271 |  0.000 % |
|       812 |    1640    32841    67240 |    16027      922    268 |  0.000 % |
|      1318 |    1640    32841    67240 |    17630     1700    243 |  0.000 % |
|      2077 |    1640    32841    67240 |    19393     2861    218 |  0.000 % |
|      3216 |    1640    32841    67240 |    21332     4263    235 |  0.000 % |
|      4924 |    1640    32841    67240 |    23465     6857    217 |  0.000 % |
|      7486 |    1640    32841    67240 |    25812    11756    215 |  0.000 % |
|     11330 |    1640    32841    67240 |    28393    16538    216 |  0.000 % |
|     17096 |    1640    32841    67240 |    31233    24240    232 |  0.000 % |
|     25745 |    1640    32841    67240 |    34356    20478    240 |  0.000 % |
|     38719 |    1640    32841    67240 |    37792    17948    268 |  0.000 % |
|     58180 |    1640    32841    67240 |    41571    20386    237 |  0.000 % |
|     87372 |    1640    32841    67240 |    45728    35299    266 |  0.000 % |
|    131161 |    1640    32841    67240 |    50301    27337    249 |  0.000 % |
|    196845 |    1640    32841    67240 |    55331    47690    263 |  0.000 % |
|    295371 |    1640    32841    67240 |    60864    15804    280 |  0.000 % |
|    443160 |    1640    32841    67240 |    66950    30313    364 |  0.000 % |
|    664843 |    1640    32841    67240 |    73645    48127    255 |  0.000 % |
|    997368 |    1640    32841    67240 |    81010    53100    281 |  0.000 % |
|   1496156 |    1640    32841    67240 |    89111    44109    246 |  0.000 % |
|   2244338 |    1640    32841    67240 |    98022    35751    487 |  0.000 % |
|   3366612 |    1640    32841    67240 |   107825    52998    242 |  0.000 % |
|   5050023 |    1640    32841    67240 |   118607    18461    282 |  0.000 % |
|   7575139 |    1640    32841    67240 |   130468    21869    427 |  0.000 % |
|  11362814 |    1640    32841    67240 |   143515    86025    375 |  0.000 % |
|  17044326 |    1640    32841    67240 |   157866    78507    338 |  0.000 % |
===============================================================================
restarts              : 32767
conflicts             : 23066615       (4555 /sec)
symconflicts          : 620088         (122 /sec)
decisions             : 55613858       (0.00 % random) (10983 /sec)
propagations          : 613914715      (121238 /sec)
sympropagations       : 6250644        (1234 /sec)
conflict literals     : 7777411958     (4.02 % deleted)
Memory used           : 809.00 MB
CPU time              : 5063.71 s

INDETERMINATE
